 &control
    calculation     = 'bands'
    prefix          = 'si'
    restart_mode    = 'from_scratch'
    pseudo_dir      = '../../pseudo/'
    outdir          = './temp'
 /
 &system
    ibrav           = 2
    celldm(1)       = 10.336
    ntyp            = 1
    nat             = 2
    ecutwfc         = 40
    nbnd            = 20
 /
 &electrons
    mixing_beta     = 0.7
    conv_thr        = 1.0d-12
 /
ATOMIC_SPECIES
  Si  28.085 Si.dojo.fr.ONCVv0.4.pbe.standard.upf
ATOMIC_POSITIONS {crystal}
 Si    0.00  0.00   0.00
 Si   -0.25  0.75  -0.25
K_POINTS crystal
 162
  0.00000000  0.00000000  0.00000000  1.
  0.00000000  0.01388889  0.01388889  1.
  0.00000000  0.02777778  0.02777778  1.
  0.00000000  0.04166667  0.04166667  1.
  0.00000000  0.05555556  0.05555556  1.
  0.00000000  0.06944444  0.06944444  1.
  0.00000000  0.08333333  0.08333333  1.
  0.00000000  0.09722222  0.09722222  1.
  0.00000000  0.11111111  0.11111111  1.
  0.00000000  0.12500000  0.12500000  1.
  0.00000000  0.13888889  0.13888889  1.
  0.00000000  0.15277778  0.15277778  1.
  0.00000000  0.16666667  0.16666667  1.
  0.00000000  0.18055556  0.18055556  1.
  0.00000000  0.19444444  0.19444444  1.
  0.00000000  0.20833333  0.20833333  1.
  0.00000000  0.22222222  0.22222222  1.
  0.00000000  0.23611111  0.23611111  1.
  0.00000000  0.25000000  0.25000000  1.
  0.00000000  0.26388889  0.26388889  1.
  0.00000000  0.27777778  0.27777778  1.
  0.00000000  0.29166667  0.29166667  1.
  0.00000000  0.30555556  0.30555556  1.
  0.00000000  0.31944444  0.31944444  1.
  0.00000000  0.33333333  0.33333333  1.
  0.00000000  0.34722222  0.34722222  1.
  0.00000000  0.36111111  0.36111111  1.
  0.00000000  0.37500000  0.37500000  1.
  0.00000000  0.38888889  0.38888889  1.
  0.00000000  0.40277778  0.40277778  1.
  0.00000000  0.41666667  0.41666667  1.
  0.00000000  0.43055556  0.43055556  1.
  0.00000000  0.44444444  0.44444444  1.
  0.00000000  0.45833333  0.45833333  1.
  0.00000000  0.47222222  0.47222222  1.
  0.00000000  0.48611111  0.48611111  1.
  0.00000000  0.50000000  0.50000000  1.
  0.00000000  0.51041667  0.48958333  1.
  0.00000000  0.52083333  0.47916667  1.
  0.00000000  0.53125000  0.46875000  1.
  0.00000000  0.54166667  0.45833333  1.
  0.00000000  0.55208333  0.44791667  1.
  0.00000000  0.56250000  0.43750000  1.
  0.00000000  0.57291667  0.42708333  1.
  0.00000000  0.58333333  0.41666667  1.
  0.00000000  0.59375000  0.40625000  1.
  0.00000000  0.60416667  0.39583333  1.
  0.00000000  0.61458333  0.38541667  1.
  0.00000000  0.62500000  0.37500000  1.
 -0.37500000  0.37500000  0.00000000  1.
 -0.36513158  0.36513158  0.00000000  1.
 -0.35526316  0.35526316  0.00000000  1.
 -0.34539474  0.34539474  0.00000000  1.
 -0.33552632  0.33552632  0.00000000  1.
 -0.32565789  0.32565789  0.00000000  1.
 -0.31578947  0.31578947  0.00000000  1.
 -0.30592105  0.30592105  0.00000000  1.
 -0.29605263  0.29605263  0.00000000  1.
 -0.28618421  0.28618421  0.00000000  1.
 -0.27631579  0.27631579  0.00000000  1.
 -0.26644737  0.26644737  0.00000000  1.
 -0.25657895  0.25657895  0.00000000  1.
 -0.24671053  0.24671053  0.00000000  1.
 -0.23684211  0.23684211  0.00000000  1.
 -0.22697368  0.22697368  0.00000000  1.
 -0.21710526  0.21710526  0.00000000  1.
 -0.20723684  0.20723684  0.00000000  1.
 -0.19736842  0.19736842  0.00000000  1.
 -0.18750000  0.18750000  0.00000000  1.
 -0.17763158  0.17763158  0.00000000  1.
 -0.16776316  0.16776316  0.00000000  1.
 -0.15789474  0.15789474  0.00000000  1.
 -0.14802632  0.14802632  0.00000000  1.
 -0.13815789  0.13815789  0.00000000  1.
 -0.12828947  0.12828947  0.00000000  1.
 -0.11842105  0.11842105  0.00000000  1.
 -0.10855263  0.10855263  0.00000000  1.
 -0.09868421  0.09868421  0.00000000  1.
 -0.08881579  0.08881579  0.00000000  1.
 -0.07894737  0.07894737  0.00000000  1.
 -0.06907895  0.06907895  0.00000000  1.
 -0.05921053  0.05921053  0.00000000  1.
 -0.04934211  0.04934211  0.00000000  1.
 -0.03947368  0.03947368  0.00000000  1.
 -0.02960526  0.02960526  0.00000000  1.
 -0.01973684  0.01973684  0.00000000  1.
 -0.00986842  0.00986842  0.00000000  1.
  0.00000000  0.00000000  0.00000000  1.
  0.00000000  0.01612903  0.00000000  1.
  0.00000000  0.03225806  0.00000000  1.
  0.00000000  0.04838710  0.00000000  1.
  0.00000000  0.06451613  0.00000000  1.
  0.00000000  0.08064516  0.00000000  1.
  0.00000000  0.09677419  0.00000000  1.
  0.00000000  0.11290323  0.00000000  1.
  0.00000000  0.12903226  0.00000000  1.
  0.00000000  0.14516129  0.00000000  1.
  0.00000000  0.16129032  0.00000000  1.
  0.00000000  0.17741935  0.00000000  1.
  0.00000000  0.19354839  0.00000000  1.
  0.00000000  0.20967742  0.00000000  1.
  0.00000000  0.22580645  0.00000000  1.
  0.00000000  0.24193548  0.00000000  1.
  0.00000000  0.25806452  0.00000000  1.
  0.00000000  0.27419355  0.00000000  1.
  0.00000000  0.29032258  0.00000000  1.
  0.00000000  0.30645161  0.00000000  1.
  0.00000000  0.32258065  0.00000000  1.
  0.00000000  0.33870968  0.00000000  1.
  0.00000000  0.35483871  0.00000000  1.
  0.00000000  0.37096774  0.00000000  1.
  0.00000000  0.38709677  0.00000000  1.
  0.00000000  0.40322581  0.00000000  1.
  0.00000000  0.41935484  0.00000000  1.
  0.00000000  0.43548387  0.00000000  1.
  0.00000000  0.45161290  0.00000000  1.
  0.00000000  0.46774194  0.00000000  1.
  0.00000000  0.48387097  0.00000000  1.
  0.00000000  0.50000000  0.00000000  1.
 -0.01000000  0.50000000  0.01000000  1.
 -0.02000000  0.50000000  0.02000000  1.
 -0.03000000  0.50000000  0.03000000  1.
 -0.04000000  0.50000000  0.04000000  1.
 -0.05000000  0.50000000  0.05000000  1.
 -0.06000000  0.50000000  0.06000000  1.
 -0.07000000  0.50000000  0.07000000  1.
 -0.08000000  0.50000000  0.08000000  1.
 -0.09000000  0.50000000  0.09000000  1.
 -0.10000000  0.50000000  0.10000000  1.
 -0.11000000  0.50000000  0.11000000  1.
 -0.12000000  0.50000000  0.12000000  1.
 -0.13000000  0.50000000  0.13000000  1.
 -0.14000000  0.50000000  0.14000000  1.
 -0.15000000  0.50000000  0.15000000  1.
 -0.16000000  0.50000000  0.16000000  1.
 -0.17000000  0.50000000  0.17000000  1.
 -0.18000000  0.50000000  0.18000000  1.
 -0.19000000  0.50000000  0.19000000  1.
 -0.20000000  0.50000000  0.20000000  1.
 -0.21000000  0.50000000  0.21000000  1.
 -0.22000000  0.50000000  0.22000000  1.
 -0.23000000  0.50000000  0.23000000  1.
 -0.24000000  0.50000000  0.24000000  1.
 -0.25000000  0.50000000  0.25000000  1.
 -0.23611111  0.50000000  0.26388889  1.
 -0.22222222  0.50000000  0.27777778  1.
 -0.20833333  0.50000000  0.29166667  1.
 -0.19444444  0.50000000  0.30555556  1.
 -0.18055556  0.50000000  0.31944444  1.
 -0.16666667  0.50000000  0.33333333  1.
 -0.15277778  0.50000000  0.34722222  1.
 -0.13888889  0.50000000  0.36111111  1.
 -0.12500000  0.50000000  0.37500000  1.
 -0.11111111  0.50000000  0.38888889  1.
 -0.09722222  0.50000000  0.40277778  1.
 -0.08333333  0.50000000  0.41666667  1.
 -0.06944444  0.50000000  0.43055556  1.
 -0.05555556  0.50000000  0.44444444  1.
 -0.04166667  0.50000000  0.45833333  1.
 -0.02777778  0.50000000  0.47222222  1.
 -0.01388889  0.50000000  0.48611111  1.
  0.00000000  0.50000000  0.50000000  1.
