 &control
    calculation     = 'bands'
    prefix          = 'si'
    restart_mode    = 'from_scratch'
    pseudo_dir      = '../../pseudo/'
    outdir          = './temp'
 /
 &system
    ibrav           = 2
    celldm(1)       = 10.336
    ntyp            = 1
    nat             = 2
    ecutwfc         = 40
    nbnd            = 20
 /
 &electrons
    diagonalization = 'cg'
    mixing_beta     = 0.7
    conv_thr        = 1.0d-12
 /
ATOMIC_SPECIES
  Si  28.085 Si.dojo.fr.ONCVv0.4.pbe.standard.upf
ATOMIC_POSITIONS {crystal}
 Si    0.05  0.05   0.05
 Si   -0.20  0.80  -0.20
K_POINTS crystal
64
  0.000000000000  0.000000000000  0.000000000000  1.56250000e-02
  0.000000000000  0.000000000000  0.250000000000  1.56250000e-02
  0.000000000000  0.000000000000  0.500000000000  1.56250000e-02
  0.000000000000  0.000000000000  0.750000000000  1.56250000e-02
  0.000000000000  0.250000000000  0.000000000000  1.56250000e-02
  0.000000000000  0.250000000000  0.250000000000  1.56250000e-02
  0.000000000000  0.250000000000  0.500000000000  1.56250000e-02
  0.000000000000  0.250000000000  0.750000000000  1.56250000e-02
  0.000000000000  0.500000000000  0.000000000000  1.56250000e-02
  0.000000000000  0.500000000000  0.250000000000  1.56250000e-02
  0.000000000000  0.500000000000  0.500000000000  1.56250000e-02
  0.000000000000  0.500000000000  0.750000000000  1.56250000e-02
  0.000000000000  0.750000000000  0.000000000000  1.56250000e-02
  0.000000000000  0.750000000000  0.250000000000  1.56250000e-02
  0.000000000000  0.750000000000  0.500000000000  1.56250000e-02
  0.000000000000  0.750000000000  0.750000000000  1.56250000e-02
  0.250000000000  0.000000000000  0.000000000000  1.56250000e-02
  0.250000000000  0.000000000000  0.250000000000  1.56250000e-02
  0.250000000000  0.000000000000  0.500000000000  1.56250000e-02
  0.250000000000  0.000000000000  0.750000000000  1.56250000e-02
  0.250000000000  0.250000000000  0.000000000000  1.56250000e-02
  0.250000000000  0.250000000000  0.250000000000  1.56250000e-02
  0.250000000000  0.250000000000  0.500000000000  1.56250000e-02
  0.250000000000  0.250000000000  0.750000000000  1.56250000e-02
  0.250000000000  0.500000000000  0.000000000000  1.56250000e-02
  0.250000000000  0.500000000000  0.250000000000  1.56250000e-02
  0.250000000000  0.500000000000  0.500000000000  1.56250000e-02
  0.250000000000  0.500000000000  0.750000000000  1.56250000e-02
  0.250000000000  0.750000000000  0.000000000000  1.56250000e-02
  0.250000000000  0.750000000000  0.250000000000  1.56250000e-02
  0.250000000000  0.750000000000  0.500000000000  1.56250000e-02
  0.250000000000  0.750000000000  0.750000000000  1.56250000e-02
  0.500000000000  0.000000000000  0.000000000000  1.56250000e-02
  0.500000000000  0.000000000000  0.250000000000  1.56250000e-02
  0.500000000000  0.000000000000  0.500000000000  1.56250000e-02
  0.500000000000  0.000000000000  0.750000000000  1.56250000e-02
  0.500000000000  0.250000000000  0.000000000000  1.56250000e-02
  0.500000000000  0.250000000000  0.250000000000  1.56250000e-02
  0.500000000000  0.250000000000  0.500000000000  1.56250000e-02
  0.500000000000  0.250000000000  0.750000000000  1.56250000e-02
  0.500000000000  0.500000000000  0.000000000000  1.56250000e-02
  0.500000000000  0.500000000000  0.250000000000  1.56250000e-02
  0.500000000000  0.500000000000  0.500000000000  1.56250000e-02
  0.500000000000  0.500000000000  0.750000000000  1.56250000e-02
  0.500000000000  0.750000000000  0.000000000000  1.56250000e-02
  0.500000000000  0.750000000000  0.250000000000  1.56250000e-02
  0.500000000000  0.750000000000  0.500000000000  1.56250000e-02
  0.500000000000  0.750000000000  0.750000000000  1.56250000e-02
  0.750000000000  0.000000000000  0.000000000000  1.56250000e-02
  0.750000000000  0.000000000000  0.250000000000  1.56250000e-02
  0.750000000000  0.000000000000  0.500000000000  1.56250000e-02
  0.750000000000  0.000000000000  0.750000000000  1.56250000e-02
  0.750000000000  0.250000000000  0.000000000000  1.56250000e-02
  0.750000000000  0.250000000000  0.250000000000  1.56250000e-02
  0.750000000000  0.250000000000  0.500000000000  1.56250000e-02
  0.750000000000  0.250000000000  0.750000000000  1.56250000e-02
  0.750000000000  0.500000000000  0.000000000000  1.56250000e-02
  0.750000000000  0.500000000000  0.250000000000  1.56250000e-02
  0.750000000000  0.500000000000  0.500000000000  1.56250000e-02
  0.750000000000  0.500000000000  0.750000000000  1.56250000e-02
  0.750000000000  0.750000000000  0.000000000000  1.56250000e-02
  0.750000000000  0.750000000000  0.250000000000  1.56250000e-02
  0.750000000000  0.750000000000  0.500000000000  1.56250000e-02
  0.750000000000  0.750000000000  0.750000000000  1.56250000e-02
