num_wann  = 8
num_bands = 14
exclude_bands = 15-20

guiding_centres = .true.

num_iter  = 0
conv_window = 5
conv_tol = 1.0d-10

dis_num_iter  = 0
dis_mix_ratio = 0.5
dis_conv_tol  = 1.d-10
dis_froz_max  = 10.5

begin atoms_frac
 Si    0.05  0.05   0.05
 Si   -0.20  0.80  -0.20
end atoms_frac

begin projections
f= 0.05, 0.05, 0.05:sp3:z=0,1,0:x=1,0,0
f=-0.20,-0.20,-0.20:sp3:z=0,0,1:x=1,0,0
end projections

begin unit_cell_cart
Bohr
-5.168000000000000e0 0.000000000000000e0 5.168000000000000e0
 0.000000000000000e0 5.168000000000000e0 5.168000000000000e0
-5.168000000000000e0 5.168000000000000e0 0.000000000000000e0
end unit_cell_cart

use_ws_distance = .true.

bands_plot = .true.
begin kpoint_path
 G  0.000  0.000  0.000   X  0.500  0.000  0.500
 X  0.500  0.000  0.500   U  0.625  0.250  0.625
 K  0.375  0.375  0.750   G  0.000  0.000  0.000
 G  0.000  0.000  0.000   L  0.500  0.500  0.500
 L  0.500  0.500  0.500   W  0.500  0.250  0.750
 W  0.500  0.250  0.750   X  0.500  0.000  0.500
end kpoint_path
bands_num_points = 50
bands_plot_format = gnuplot
bands_plot_mode = s-k
bands_plot_dim = 3

mp_grid =      4      4      4
begin kpoints
  0.000000000000  0.000000000000  0.000000000000
  0.000000000000  0.000000000000  0.250000000000
  0.000000000000  0.000000000000  0.500000000000
  0.000000000000  0.000000000000  0.750000000000
  0.000000000000  0.250000000000  0.000000000000
  0.000000000000  0.250000000000  0.250000000000
  0.000000000000  0.250000000000  0.500000000000
  0.000000000000  0.250000000000  0.750000000000
  0.000000000000  0.500000000000  0.000000000000
  0.000000000000  0.500000000000  0.250000000000
  0.000000000000  0.500000000000  0.500000000000
  0.000000000000  0.500000000000  0.750000000000
  0.000000000000  0.750000000000  0.000000000000
  0.000000000000  0.750000000000  0.250000000000
  0.000000000000  0.750000000000  0.500000000000
  0.000000000000  0.750000000000  0.750000000000
  0.250000000000  0.000000000000  0.000000000000
  0.250000000000  0.000000000000  0.250000000000
  0.250000000000  0.000000000000  0.500000000000
  0.250000000000  0.000000000000  0.750000000000
  0.250000000000  0.250000000000  0.000000000000
  0.250000000000  0.250000000000  0.250000000000
  0.250000000000  0.250000000000  0.500000000000
  0.250000000000  0.250000000000  0.750000000000
  0.250000000000  0.500000000000  0.000000000000
  0.250000000000  0.500000000000  0.250000000000
  0.250000000000  0.500000000000  0.500000000000
  0.250000000000  0.500000000000  0.750000000000
  0.250000000000  0.750000000000  0.000000000000
  0.250000000000  0.750000000000  0.250000000000
  0.250000000000  0.750000000000  0.500000000000
  0.250000000000  0.750000000000  0.750000000000
  0.500000000000  0.000000000000  0.000000000000
  0.500000000000  0.000000000000  0.250000000000
  0.500000000000  0.000000000000  0.500000000000
  0.500000000000  0.000000000000  0.750000000000
  0.500000000000  0.250000000000  0.000000000000
  0.500000000000  0.250000000000  0.250000000000
  0.500000000000  0.250000000000  0.500000000000
  0.500000000000  0.250000000000  0.750000000000
  0.500000000000  0.500000000000  0.000000000000
  0.500000000000  0.500000000000  0.250000000000
  0.500000000000  0.500000000000  0.500000000000
  0.500000000000  0.500000000000  0.750000000000
  0.500000000000  0.750000000000  0.000000000000
  0.500000000000  0.750000000000  0.250000000000
  0.500000000000  0.750000000000  0.500000000000
  0.500000000000  0.750000000000  0.750000000000
  0.750000000000  0.000000000000  0.000000000000
  0.750000000000  0.000000000000  0.250000000000
  0.750000000000  0.000000000000  0.500000000000
  0.750000000000  0.000000000000  0.750000000000
  0.750000000000  0.250000000000  0.000000000000
  0.750000000000  0.250000000000  0.250000000000
  0.750000000000  0.250000000000  0.500000000000
  0.750000000000  0.250000000000  0.750000000000
  0.750000000000  0.500000000000  0.000000000000
  0.750000000000  0.500000000000  0.250000000000
  0.750000000000  0.500000000000  0.500000000000
  0.750000000000  0.500000000000  0.750000000000
  0.750000000000  0.750000000000  0.000000000000
  0.750000000000  0.750000000000  0.250000000000
  0.750000000000  0.750000000000  0.500000000000
  0.750000000000  0.750000000000  0.750000000000
end kpoints
